(set-logic HORN)


(declare-fun |<JayHornAssertions: void <clinit>()>_Block0| ( Int Int Int Int Int ) Bool)
(declare-fun |<Main: void <clinit>()>_Block1_3| ( Int Int Int Int Int ) Bool)
(declare-fun |<Main: int isOdd(int)>_Block0| ( Int Int Int Int Int Int Int ) Bool)
(declare-fun |<Main: int isOdd(int)>_Block1| ( Int Int Int Int Int ) Bool)
(declare-fun |<Main: int isOdd(int)>_Block3_1| ( Int Int Int Int Int Int Int ) Bool)
(declare-fun |<Main: int isOdd(int)>_Block1_1| ( Int Int Int Int Int ) Bool)
(declare-fun |<Main: int isEven(int)>_Block1| ( Int Int Int Int Int ) Bool)
(declare-fun |<JayHornAssertions: void <clinit>()>_Block1| ( Int Int ) Bool)
(declare-fun |<Main: int isEven(int)>_Block7_1| ( Int Int Int Int Int Int Int ) Bool)
(declare-fun |<Main: int isEven(int)>_Block5_1| ( Int Int Int Int Int Int Int ) Bool)
(declare-fun |<Main: void main(JayArray_java_lang_String)>_Block2_2| ( Int Int Int Int Int Int Int Int Int Int Int Int ) Bool)
(declare-fun |<Main: void <clinit>()>_Block1_2| ( Int Int Int Int Int Int Int Int ) Bool)
(declare-fun |<JayHornAssertions: void <clinit>()>_post| ( Int Int Int Int Int ) Bool)
(declare-fun |Assert #0: Main.java, line 34| ( ) Bool)
(declare-fun |<Main: void main(JayArray_java_lang_String)>_Block2_4| ( Int Int Int Int Int Int Int Int Int Int Int ) Bool)
(declare-fun |<Main: int isEven(int)>_Block0| ( Int Int Int Int Int Int Int ) Bool)
(declare-fun |<Havoc_Class: int havoc_int()>_post| ( Int Int Int Int Int Int ) Bool)
(declare-fun |<Main: int isOdd(int)>_Block1_3| ( Int Int Int Int Int Int Int Int Int ) Bool)
(declare-fun |<Main: int isEven(int)>_Block2| ( Int Int Int Int Int Int Int Int Int ) Bool)
(declare-fun |<Main: void <clinit>()>_Block1| ( Int Int Int Int Int ) Bool)
(declare-fun |<Main: int isEven(int)>_Block1_2| ( Int Int Int Int Int Int Int Int ) Bool)
(declare-fun |<Main: void main(JayArray_java_lang_String)>_Block5| ( Int Int Int Int Int Int Int Int Int Int Int ) Bool)
(declare-fun |<Main: void main(JayArray_java_lang_String)>_Block1_4| ( Int Int Int Int Int Int Int Int ) Bool)
(declare-fun |<Main: int isEven(int)>_Block1_1| ( Int Int Int Int Int ) Bool)
(declare-fun |<Main: int isEven(int)>_Block4_1| ( Int Int Int Int ) Bool)
(declare-fun |<Main: void main(JayArray_java_lang_String)>_Block1_8| ( Int Int Int Int Int Int Int Int Int Int Int Int ) Bool)
(declare-fun |<JayHornAssertions: void <clinit>()>_pre| ( Int ) Bool)
(declare-fun |<Havoc_Class: int havoc_int()>_pre| ( Int ) Bool)
(declare-fun |<Main: int isOdd(int)>_pre| ( Int Int ) Bool)
(declare-fun |<Main: int isOdd(int)>_Block2| ( Int Int Int Int Int Int Int Int Int ) Bool)
(declare-fun |<Main: int isOdd(int)>_Block5_1| ( Int Int Int Int Int Int Int ) Bool)
(declare-fun |<JayHornAssertions: void <clinit>()>_Block1_1| ( Int Int ) Bool)
(declare-fun |<Havoc_Class: int havoc_int()>_Block0_2| ( Int Int Int Int Int Int ) Bool)
(declare-fun |<Main: int isOdd(int)>_Block7_1| ( Int Int Int Int Int Int Int ) Bool)
(declare-fun |CHC_COMP_FALSE| ( ) Bool)
(declare-fun |Assert #1: Main.java, line 38| ( ) Bool)
(declare-fun |<Main: int isEven(int)>_post| ( Int Int Int Int Int Int Int ) Bool)
(declare-fun |<Main: int isEven(int)>_pre| ( Int Int ) Bool)
(declare-fun |<Main: void <clinit>()>_Block1_1| ( Int Int Int Int Int ) Bool)
(declare-fun |<Main: int isEven(int)>_Block4| ( Int Int Int Int Int Int Int Int Int ) Bool)
(declare-fun |<Main: int isOdd(int)>_Block7| ( Int Int Int Int Int Int Int ) Bool)
(declare-fun |<Main: int isOdd(int)>_Block6_1| ( Int Int Int Int Int Int Int ) Bool)
(declare-fun |<Main: void main(JayArray_java_lang_String)>_Block1_6| ( Int Int Int Int Int Int Int Int Int Int Int Int ) Bool)
(declare-fun |<Main: int isOdd(int)>_Block1_2| ( Int Int Int Int Int Int Int Int ) Bool)
(declare-fun |<Main: int isEven(int)>_Block1_3| ( Int Int Int Int Int Int Int Int Int ) Bool)
(declare-fun |<Havoc_Class: int havoc_int()>_Block0_1| ( Int Int Int ) Bool)
(declare-fun |<Main: void main(JayArray_java_lang_String)>_Block6| ( Int Int Int Int Int Int Int Int Int Int Int ) Bool)
(declare-fun |<Main: int isOdd(int)>_Block6| ( Int Int Int Int Int Int ) Bool)
(declare-fun |<Main: int isEven(int)>_Block3_1| ( Int Int Int Int Int Int Int ) Bool)
(declare-fun |<Main: int isOdd(int)>_Block4| ( Int Int Int Int Int Int Int Int Int ) Bool)
(declare-fun |<Main: void main(JayArray_java_lang_String)>_Block2_1| ( Int Int Int Int Int Int Int Int Int Int Int ) Bool)
(declare-fun |<Main: int isEven(int)>_Block6_1| ( Int Int Int Int Int Int Int ) Bool)
(declare-fun |<Havoc_Class: int havoc_int()>_Block0| ( Int Int Int ) Bool)
(declare-fun |<Main: int isEven(int)>_Block7| ( Int Int Int Int Int Int Int ) Bool)
(declare-fun |<Main: int isOdd(int)>_post| ( Int Int Int Int Int Int Int ) Bool)
(declare-fun |<Main: void main(JayArray_java_lang_String)>_Block1_3| ( Int Int Int Int Int Int Int Int ) Bool)
(declare-fun |<Main: void main(JayArray_java_lang_String)>_Block1_7| ( Int Int Int Int Int Int Int Int Int Int Int Int Int ) Bool)
(declare-fun |<Main: void <clinit>()>_post| ( Int Int Int Int Int ) Bool)
(declare-fun |<Main: void <clinit>()>_pre| ( Int ) Bool)
(declare-fun |<Main: void main(JayArray_java_lang_String)>_Block1_2| ( Int Int Int Int Int Int Int Int Int Int Int Int Int Int Int Int ) Bool)
(declare-fun |<Main: int isOdd(int)>_Block5| ( Int Int Int Int Int Int Int ) Bool)
(declare-fun |<Main: int isEven(int)>_Block6| ( Int Int Int Int Int Int ) Bool)
(declare-fun |<Main: int isOdd(int)>_Block3| ( Int Int Int Int Int Int Int ) Bool)
(declare-fun |<Main: void main(JayArray_java_lang_String)>_Block1_1| ( Int Int Int Int Int Int Int Int Int Int Int Int Int Int Int Int Int ) Bool)
(declare-fun |<Main: int isEven(int)>_Block3| ( Int Int Int Int Int Int Int ) Bool)
(declare-fun |<Main: void main(JayArray_java_lang_String)>_Block1| ( Int Int Int Int Int Int Int Int Int Int Int Int Int Int Int Int Int Int Int Int Int Int ) Bool)
(declare-fun |<Main: int isOdd(int)>_Block4_2| ( Int Int Int Int Int Int Int ) Bool)
(declare-fun |<Main: int isEven(int)>_Block4_2| ( Int Int Int Int Int Int Int ) Bool)
(declare-fun |<JayHornAssertions: void <clinit>()>_Block1_2| ( Int Int Int Int Int ) Bool)
(declare-fun |<Main: int isEven(int)>_Block5| ( Int Int Int Int Int Int Int ) Bool)
(declare-fun |<Main: void <clinit>()>_Block0| ( Int Int Int Int Int ) Bool)
(declare-fun |<Main: void main(JayArray_java_lang_String)>_Block2| ( Int Int Int Int Int Int Int Int Int Int Int Int ) Bool)
(declare-fun |<Main: void main(JayArray_java_lang_String)>_Block1_5| ( Int Int Int Int Int Int Int Int ) Bool)
(declare-fun |Assert #2: Main.java, line 43| ( ) Bool)
(declare-fun |<Main: void main(JayArray_java_lang_String)>_pre| ( Int Int Int Int Int ) Bool)
(declare-fun |<Main: int isOdd(int)>_Block4_1| ( Int Int Int Int ) Bool)
(declare-fun |<Main: void main(JayArray_java_lang_String)>_Block2_3| ( Int Int Int Int Int Int Int Int Int Int Int ) Bool)

(assert
  (forall ( (A Int) (B Int) (C Int) (v_3 Int) (v_4 Int) ) 
    (=>
      (and
        (|<Main: int isOdd(int)>_pre| A B)
        (and (= v_3 A) (= v_4 B))
      )
      (|<Main: int isOdd(int)>_Block1| A B C v_3 v_4)
    )
  )
)
(assert
  (forall ( (A Int) (B Int) (C Int) (v_3 Int) (v_4 Int) (v_5 Int) (v_6 Int) ) 
    (=>
      (and
        (|<Main: int isOdd(int)>_Block1| A B C v_3 v_4)
        (and (= v_3 A) (= v_4 B) (= v_5 A) (= v_6 B))
      )
      (|<Main: int isOdd(int)>_Block1_1| A B C v_5 v_6)
    )
  )
)
(assert
  (forall ( (A Int) (B Int) (C Int) (D Int) (E Int) (F Int) (G Int) (v_7 Int) (v_8 Int) ) 
    (=>
      (and
        (|<Main: int isOdd(int)>_Block1_1| A B F v_7 G)
        (and (= v_7 A) (= C 0) (= E 0) (= D 0) (= v_8 A))
      )
      (|<Main: int isOdd(int)>_Block1_2| A B C D E F v_8 G)
    )
  )
)
(assert
  (forall ( (A Int) (B Int) (C Int) (D Int) (E Int) (F Int) (G Int) (v_7 Int) (v_8 Int) (v_9 Int) ) 
    (=>
      (and
        (|<Main: int isOdd(int)>_Block1_2| A B C D E F v_7 G)
        (and (= v_7 A) (= v_8 A) (= v_9 A))
      )
      (|<Main: int isOdd(int)>_Block1_3| A B C D E F v_8 v_9 G)
    )
  )
)
(assert
  (forall ( (A Int) (B Int) (C Int) (D Int) (E Int) (F Int) (G Int) (H Int) (v_8 Int) (v_9 Int) ) 
    (=>
      (and
        (|<Main: int isOdd(int)>_Block1_3| A B C D E F v_8 G H)
        (and (= v_8 A) (not (= A 0)) (= v_9 A))
      )
      (|<Main: int isOdd(int)>_Block2| A B C D E F v_9 G H)
    )
  )
)
(assert
  (forall ( (A Int) (B Int) (C Int) (D Int) (E Int) (F Int) (G Int) (H Int) (v_8 Int) (v_9 Int) ) 
    (=>
      (and
        (|<Main: int isOdd(int)>_Block1_3| A B C D E G v_8 H F)
        (and (= v_8 A) (= A 0) (= v_9 A))
      )
      (|<Main: int isOdd(int)>_Block3| A B C D E v_9 F)
    )
  )
)
(assert
  (forall ( (A Int) (B Int) (C Int) (D Int) (E Int) (F Int) (G Int) (H Int) (v_8 Int) (v_9 Int) ) 
    (=>
      (and
        (|<Main: int isOdd(int)>_Block2| A B C D E F v_8 G H)
        (and (= v_8 A) (not (= G 1)) (= v_9 A))
      )
      (|<Main: int isOdd(int)>_Block4| A B C D E F v_9 G H)
    )
  )
)
(assert
  (forall ( (A Int) (B Int) (C Int) (D Int) (E Int) (F Int) (G Int) (H Int) (v_8 Int) ) 
    (=>
      (and
        (|<Main: int isOdd(int)>_Block2| A B C D E H v_8 F G)
        (and (= v_8 A) (= F 1))
      )
      (|<Main: int isOdd(int)>_Block5| A B C D E F G)
    )
  )
)
(assert
  (forall ( (A Int) (B Int) (C Int) (D Int) (E Int) (F Int) (G Int) (v_7 Int) ) 
    (=>
      (and
        (|<Main: int isOdd(int)>_Block3| A B C D E v_7 G)
        (and (= v_7 A) (= F 0))
      )
      (|<Main: int isOdd(int)>_Block3_1| A B C D E F G)
    )
  )
)
(assert
  (forall ( (A Int) (B Int) (C Int) (D Int) (E Int) (F Int) (G Int) ) 
    (=>
      (and
        (|<Main: int isOdd(int)>_Block3_1| A B C D E F G)
        true
      )
      (|<Main: int isOdd(int)>_Block0| A B C D E F G)
    )
  )
)
(assert
  (forall ( (A Int) (B Int) (C Int) (D Int) (E Int) (F Int) (G Int) ) 
    (=>
      (and
        (|<Main: int isOdd(int)>_Block5_1| A B C D E F G)
        true
      )
      (|<Main: int isOdd(int)>_Block0| A B C D E F G)
    )
  )
)
(assert
  (forall ( (A Int) (B Int) (C Int) (D Int) (E Int) (F Int) (G Int) ) 
    (=>
      (and
        (|<Main: int isOdd(int)>_Block6_1| A B C D E F G)
        true
      )
      (|<Main: int isOdd(int)>_Block0| A B C D E F G)
    )
  )
)
(assert
  (forall ( (A Int) (B Int) (C Int) (D Int) (E Int) (F Int) (G Int) ) 
    (=>
      (and
        (|<Main: int isOdd(int)>_Block7_1| A B C D E F G)
        true
      )
      (|<Main: int isOdd(int)>_Block0| A B C D E F G)
    )
  )
)
(assert
  (forall ( (A Int) (B Int) (C Int) (D Int) (E Int) (F Int) (G Int) (H Int) (I Int) (v_9 Int) ) 
    (=>
      (and
        (|<Main: int isOdd(int)>_Block4| A B E F G H v_9 I D)
        (and (= v_9 A) (= C (+ (- 1) A)))
      )
      (|<Main: int isOdd(int)>_Block4_1| A B C D)
    )
  )
)
(assert
  (forall ( (A Int) (B Int) (C Int) (D Int) ) 
    (=>
      (and
        (|<Main: int isOdd(int)>_Block4_1| C D A B)
        true
      )
      (|<Main: int isEven(int)>_pre| A B)
    )
  )
)
(assert
  (forall ( (A Int) (B Int) (C Int) (D Int) (E Int) (F Int) (G Int) (H Int) (I Int) (J Int) (K Int) (L Int) ) 
    (=>
      (and
        (|<Main: void main(JayArray_java_lang_String)>_Block2| C D E F G H I J K A L B)
        true
      )
      (|<Main: int isEven(int)>_pre| A B)
    )
  )
)
(assert
  (forall ( (A Int) (B Int) (C Int) (D Int) (E Int) (F Int) (G Int) (H Int) (I Int) ) 
    (=>
      (and
        (|<Main: int isOdd(int)>_Block4_1| A B H I)
        (|<Main: int isEven(int)>_post| H I C D E F G)
        true
      )
      (|<Main: int isOdd(int)>_Block4_2| A B C D E F G)
    )
  )
)
(assert
  (forall ( (A Int) (B Int) (C Int) (D Int) (E Int) (F Int) (G Int) ) 
    (=>
      (and
        (|<Main: int isOdd(int)>_Block4_2| A B C D E G F)
        (not (= C 0))
      )
      (|<Main: int isOdd(int)>_Block6| A B C D E F)
    )
  )
)
(assert
  (forall ( (A Int) (B Int) (C Int) (D Int) (E Int) (F Int) (G Int) ) 
    (=>
      (and
        (|<Main: int isOdd(int)>_Block4_2| A B C D E F G)
        (= C 0)
      )
      (|<Main: int isOdd(int)>_Block7| A B C D E F G)
    )
  )
)
(assert
  (forall ( (A Int) (B Int) (C Int) (D Int) (E Int) (F Int) (G Int) (H Int) ) 
    (=>
      (and
        (|<Main: int isOdd(int)>_Block5| A B C D E H G)
        (= F 1)
      )
      (|<Main: int isOdd(int)>_Block5_1| A B C D E F G)
    )
  )
)
(assert
  (forall ( (A Int) (B Int) (C Int) (D Int) (E Int) (F Int) (G Int) ) 
    (=>
      (and
        (|<Main: int isOdd(int)>_Block0| A B C D E F G)
        true
      )
      (|<Main: int isOdd(int)>_post| A B C D E F G)
    )
  )
)
(assert
  (forall ( (A Int) (B Int) (C Int) (D Int) (E Int) (F Int) (G Int) ) 
    (=>
      (and
        (|<Main: int isOdd(int)>_Block6| A B C D E G)
        (= F 0)
      )
      (|<Main: int isOdd(int)>_Block6_1| A B C D E F G)
    )
  )
)
(assert
  (forall ( (A Int) (B Int) (C Int) (D Int) (E Int) (F Int) (G Int) ) 
    (=>
      (and
        (|<Main: int isOdd(int)>_Block7| A B C D E F G)
        true
      )
      (|<Main: int isOdd(int)>_Block7_1| A B C D E F G)
    )
  )
)
(assert
  (forall ( (A Int) (B Int) (C Int) (v_3 Int) (v_4 Int) ) 
    (=>
      (and
        (|<Main: int isEven(int)>_pre| A B)
        (and (= v_3 A) (= v_4 B))
      )
      (|<Main: int isEven(int)>_Block1| A B C v_3 v_4)
    )
  )
)
(assert
  (forall ( (A Int) (B Int) (C Int) (v_3 Int) (v_4 Int) (v_5 Int) (v_6 Int) ) 
    (=>
      (and
        (|<Main: int isEven(int)>_Block1| A B C v_3 v_4)
        (and (= v_3 A) (= v_4 B) (= v_5 A) (= v_6 B))
      )
      (|<Main: int isEven(int)>_Block1_1| A B C v_5 v_6)
    )
  )
)
(assert
  (forall ( (A Int) (B Int) (C Int) (D Int) (E Int) (F Int) (G Int) (v_7 Int) (v_8 Int) ) 
    (=>
      (and
        (|<Main: int isEven(int)>_Block1_1| A B F v_7 G)
        (and (= v_7 A) (= C 0) (= E 0) (= D 0) (= v_8 A))
      )
      (|<Main: int isEven(int)>_Block1_2| A B C D E F v_8 G)
    )
  )
)
(assert
  (forall ( (A Int) (B Int) (C Int) (D Int) (E Int) (F Int) (G Int) (v_7 Int) (v_8 Int) (v_9 Int) ) 
    (=>
      (and
        (|<Main: int isEven(int)>_Block1_2| A B C D E F v_7 G)
        (and (= v_7 A) (= v_8 A) (= v_9 A))
      )
      (|<Main: int isEven(int)>_Block1_3| A B C D E F v_8 v_9 G)
    )
  )
)
(assert
  (forall ( (A Int) (B Int) (C Int) (D Int) (E Int) (F Int) (G Int) (H Int) (v_8 Int) (v_9 Int) ) 
    (=>
      (and
        (|<Main: int isEven(int)>_Block1_3| A B C D E F v_8 G H)
        (and (= v_8 A) (not (= A 0)) (= v_9 A))
      )
      (|<Main: int isEven(int)>_Block2| A B C D E F v_9 G H)
    )
  )
)
(assert
  (forall ( (A Int) (B Int) (C Int) (D Int) (E Int) (F Int) (G Int) (H Int) (v_8 Int) (v_9 Int) ) 
    (=>
      (and
        (|<Main: int isEven(int)>_Block1_3| A B C D E G v_8 H F)
        (and (= v_8 A) (= A 0) (= v_9 A))
      )
      (|<Main: int isEven(int)>_Block3| A B C D E v_9 F)
    )
  )
)
(assert
  (forall ( (A Int) (B Int) (C Int) (D Int) (E Int) (F Int) (G Int) (H Int) (v_8 Int) (v_9 Int) ) 
    (=>
      (and
        (|<Main: int isEven(int)>_Block2| A B C D E F v_8 G H)
        (and (= v_8 A) (not (= G 1)) (= v_9 A))
      )
      (|<Main: int isEven(int)>_Block4| A B C D E F v_9 G H)
    )
  )
)
(assert
  (forall ( (A Int) (B Int) (C Int) (D Int) (E Int) (F Int) (G Int) (H Int) (v_8 Int) ) 
    (=>
      (and
        (|<Main: int isEven(int)>_Block2| A B C D E H v_8 F G)
        (and (= v_8 A) (= F 1))
      )
      (|<Main: int isEven(int)>_Block5| A B C D E F G)
    )
  )
)
(assert
  (forall ( (A Int) (B Int) (C Int) (D Int) (E Int) (F Int) (G Int) (v_7 Int) ) 
    (=>
      (and
        (|<Main: int isEven(int)>_Block3| A B C D E v_7 G)
        (and (= v_7 A) (= F 1))
      )
      (|<Main: int isEven(int)>_Block3_1| A B C D E F G)
    )
  )
)
(assert
  (forall ( (A Int) (B Int) (C Int) (D Int) (E Int) (F Int) (G Int) ) 
    (=>
      (and
        (|<Main: int isEven(int)>_Block3_1| A B C D E F G)
        true
      )
      (|<Main: int isEven(int)>_Block0| A B C D E F G)
    )
  )
)
(assert
  (forall ( (A Int) (B Int) (C Int) (D Int) (E Int) (F Int) (G Int) ) 
    (=>
      (and
        (|<Main: int isEven(int)>_Block5_1| A B C D E F G)
        true
      )
      (|<Main: int isEven(int)>_Block0| A B C D E F G)
    )
  )
)
(assert
  (forall ( (A Int) (B Int) (C Int) (D Int) (E Int) (F Int) (G Int) ) 
    (=>
      (and
        (|<Main: int isEven(int)>_Block6_1| A B C D E F G)
        true
      )
      (|<Main: int isEven(int)>_Block0| A B C D E F G)
    )
  )
)
(assert
  (forall ( (A Int) (B Int) (C Int) (D Int) (E Int) (F Int) (G Int) ) 
    (=>
      (and
        (|<Main: int isEven(int)>_Block7_1| A B C D E F G)
        true
      )
      (|<Main: int isEven(int)>_Block0| A B C D E F G)
    )
  )
)
(assert
  (forall ( (A Int) (B Int) (C Int) (D Int) (E Int) (F Int) (G Int) (H Int) (I Int) (v_9 Int) ) 
    (=>
      (and
        (|<Main: int isEven(int)>_Block4| A B E F G H v_9 I D)
        (and (= v_9 A) (= C (+ (- 1) A)))
      )
      (|<Main: int isEven(int)>_Block4_1| A B C D)
    )
  )
)
(assert
  (forall ( (A Int) (B Int) (C Int) (D Int) ) 
    (=>
      (and
        (|<Main: int isEven(int)>_Block4_1| C D A B)
        true
      )
      (|<Main: int isOdd(int)>_pre| A B)
    )
  )
)
(assert
  (forall ( (A Int) (B Int) (C Int) (D Int) (E Int) (F Int) (G Int) (H Int) (I Int) ) 
    (=>
      (and
        (|<Main: int isEven(int)>_Block4_1| A B H I)
        (|<Main: int isOdd(int)>_post| H I C D E F G)
        true
      )
      (|<Main: int isEven(int)>_Block4_2| A B C D E F G)
    )
  )
)
(assert
  (forall ( (A Int) (B Int) (C Int) (D Int) (E Int) (F Int) (G Int) ) 
    (=>
      (and
        (|<Main: int isEven(int)>_Block4_2| A B C D E G F)
        (not (= C 0))
      )
      (|<Main: int isEven(int)>_Block6| A B C D E F)
    )
  )
)
(assert
  (forall ( (A Int) (B Int) (C Int) (D Int) (E Int) (F Int) (G Int) ) 
    (=>
      (and
        (|<Main: int isEven(int)>_Block4_2| A B C D E F G)
        (= C 0)
      )
      (|<Main: int isEven(int)>_Block7| A B C D E F G)
    )
  )
)
(assert
  (forall ( (A Int) (B Int) (C Int) (D Int) (E Int) (F Int) (G Int) (H Int) ) 
    (=>
      (and
        (|<Main: int isEven(int)>_Block5| A B C D E H G)
        (= F 0)
      )
      (|<Main: int isEven(int)>_Block5_1| A B C D E F G)
    )
  )
)
(assert
  (forall ( (A Int) (B Int) (C Int) (D Int) (E Int) (F Int) (G Int) ) 
    (=>
      (and
        (|<Main: int isEven(int)>_Block0| A B C D E F G)
        true
      )
      (|<Main: int isEven(int)>_post| A B C D E F G)
    )
  )
)
(assert
  (forall ( (A Int) (B Int) (C Int) (D Int) (E Int) (F Int) (G Int) ) 
    (=>
      (and
        (|<Main: int isEven(int)>_Block6| A B C D E G)
        (= F 0)
      )
      (|<Main: int isEven(int)>_Block6_1| A B C D E F G)
    )
  )
)
(assert
  (forall ( (A Int) (B Int) (C Int) (D Int) (E Int) (F Int) (G Int) ) 
    (=>
      (and
        (|<Main: int isEven(int)>_Block7| A B C D E F G)
        true
      )
      (|<Main: int isEven(int)>_Block7_1| A B C D E F G)
    )
  )
)
(assert
  (forall ( (A Int) (B Int) (C Int) (D Int) (E Int) (F Int) (G Int) (H Int) (I Int) (J Int) (K Int) (L Int) (M Int) (N Int) (O Int) (P Int) (Q Int) (R Int) (v_18 Int) (v_19 Int) (v_20 Int) (v_21 Int) ) 
    (=>
      (and
        (|<Main: void main(JayArray_java_lang_String)>_pre| A B C D E)
        (and (= v_18 A) (= v_19 B) (= v_20 C) (= v_21 D))
      )
      (|<Main: void main(JayArray_java_lang_String)>_Block1|
  A
  B
  C
  D
  E
  F
  G
  H
  I
  J
  v_18
  v_19
  v_20
  v_21
  K
  L
  M
  N
  O
  P
  Q
  R)
    )
  )
)
(assert
  (forall ( (A Int) (B Int) (C Int) (D Int) (E Int) (F Int) (G Int) (H Int) (I Int) (J Int) (K Int) (L Int) (M Int) (N Int) (O Int) (P Int) (Q Int) (R Int) (S Int) (v_19 Int) (v_20 Int) (v_21 Int) (v_22 Int) (v_23 Int) (v_24 Int) (v_25 Int) (v_26 Int) ) 
    (=>
      (and
        (|<Main: void main(JayArray_java_lang_String)>_Block1|
  A
  B
  C
  D
  E
  F
  N
  O
  P
  Q
  v_19
  v_20
  v_21
  v_22
  G
  R
  H
  S
  J
  K
  L
  M)
        (and (= v_19 A)
     (= v_20 B)
     (= v_21 C)
     (= v_22 D)
     (= I 1)
     (= v_23 A)
     (= v_24 B)
     (= v_25 C)
     (= v_26 D))
      )
      (|<Main: void main(JayArray_java_lang_String)>_Block1_1|
  A
  B
  C
  D
  E
  F
  v_23
  v_24
  v_25
  v_26
  G
  H
  I
  J
  K
  L
  M)
    )
  )
)
(assert
  (forall ( (A Int) (B Int) (C Int) (D Int) (E Int) (F Int) (G Int) (H Int) (I Int) (J Int) (K Int) (L Int) (M Int) (v_13 Int) (v_14 Int) (v_15 Int) (v_16 Int) (v_17 Int) (v_18 Int) (v_19 Int) (v_20 Int) ) 
    (=>
      (and
        (|<Main: void main(JayArray_java_lang_String)>_Block1_1|
  A
  B
  C
  D
  E
  F
  v_13
  v_14
  v_15
  v_16
  M
  G
  H
  I
  J
  K
  L)
        (and (= v_13 A)
     (= v_14 B)
     (= v_15 C)
     (= v_16 D)
     (>= D 0)
     (= B 109)
     (= v_17 A)
     (= v_18 B)
     (= v_19 C)
     (= v_20 D))
      )
      (|<Main: void main(JayArray_java_lang_String)>_Block1_2|
  A
  B
  C
  D
  E
  F
  v_17
  v_18
  v_19
  v_20
  G
  H
  I
  J
  K
  L)
    )
  )
)
(assert
  (forall ( (A Int) (B Int) (C Int) (D Int) (E Int) (F Int) (G Int) (H Int) (I Int) (J Int) (K Int) (L Int) (v_12 Int) (v_13 Int) (v_14 Int) (v_15 Int) ) 
    (=>
      (and
        (|<Main: void main(JayArray_java_lang_String)>_Block1_2|
  A
  B
  C
  D
  E
  F
  v_12
  v_13
  v_14
  v_15
  G
  H
  I
  J
  K
  L)
        (and (= v_12 A) (= v_13 B) (= v_14 C) (= v_15 D))
      )
      (|<Main: void main(JayArray_java_lang_String)>_Block1_3| A B C D E F G H)
    )
  )
)
(assert
  (forall ( (A Int) (B Int) (C Int) (D Int) (E Int) (F Int) (G Int) (H Int) ) 
    (=>
      (and
        (|<Main: void main(JayArray_java_lang_String)>_Block1_3| B C D E F G H A)
        true
      )
      (|<Main: void <clinit>()>_pre| A)
    )
  )
)
(assert
  (forall ( (A Int) (B Int) (C Int) (D Int) (E Int) (F Int) (G Int) (H Int) (I Int) (J Int) (K Int) (L Int) ) 
    (=>
      (and
        (|<Main: void main(JayArray_java_lang_String)>_Block1_3| A B C D E F G I)
        (|<Main: void <clinit>()>_post| I J K L H)
        true
      )
      (|<Main: void main(JayArray_java_lang_String)>_Block1_4| A B C D E F G H)
    )
  )
)
(assert
  (forall ( (A Int) (B Int) (C Int) (D Int) (E Int) (F Int) (G Int) (H Int) ) 
    (=>
      (and
        (|<Main: void main(JayArray_java_lang_String)>_Block1_4| B C D E F G H A)
        true
      )
      (|<JayHornAssertions: void <clinit>()>_pre| A)
    )
  )
)
(assert
  (forall ( (A Int) (B Int) (C Int) (D Int) (E Int) (F Int) (G Int) (H Int) (I Int) (J Int) (K Int) (L Int) ) 
    (=>
      (and
        (|<Main: void main(JayArray_java_lang_String)>_Block1_4| A B C D E F G I)
        (|<JayHornAssertions: void <clinit>()>_post| I J K L H)
        true
      )
      (|<Main: void main(JayArray_java_lang_String)>_Block1_5| A B C D E F G H)
    )
  )
)
(assert
  (forall ( (A Int) (B Int) (C Int) (D Int) (E Int) (F Int) (G Int) (H Int) ) 
    (=>
      (and
        (|<Main: void main(JayArray_java_lang_String)>_Block1_5| B C D E F G H A)
        true
      )
      (|<Havoc_Class: int havoc_int()>_pre| A)
    )
  )
)
(assert
  (forall ( (A Int) (B Int) (C Int) (D Int) (E Int) (F Int) (G Int) (H Int) (I Int) (J Int) (K Int) (L Int) (M Int) ) 
    (=>
      (and
        (|<Main: void main(JayArray_java_lang_String)>_Block1_5| A B C D E F K M)
        (|<Havoc_Class: int havoc_int()>_post| M G H I J L)
        true
      )
      (|<Main: void main(JayArray_java_lang_String)>_Block1_6|
  A
  B
  C
  D
  E
  F
  G
  H
  I
  J
  K
  L)
    )
  )
)
(assert
  (forall ( (A Int) (B Int) (C Int) (D Int) (E Int) (F Int) (G Int) (H Int) (I Int) (J Int) (K Int) (L Int) (M Int) ) 
    (=>
      (and
        (|<Main: void main(JayArray_java_lang_String)>_Block1_6|
  A
  B
  C
  D
  E
  F
  H
  I
  J
  K
  L
  M)
        (and (= G 1) (not (= H 0)))
      )
      (|<Main: void main(JayArray_java_lang_String)>_Block1_7|
  A
  B
  C
  D
  E
  F
  G
  H
  I
  J
  K
  L
  M)
    )
  )
)
(assert
  (forall ( (A Int) (B Int) (C Int) (D Int) (E Int) (F Int) (G Int) (H Int) (I Int) (J Int) (K Int) (L Int) (M Int) ) 
    (=>
      (and
        (|<Main: void main(JayArray_java_lang_String)>_Block1_6|
  A
  B
  C
  D
  E
  F
  H
  I
  J
  K
  L
  M)
        (and (= G 0) (= H 0))
      )
      (|<Main: void main(JayArray_java_lang_String)>_Block1_7|
  A
  B
  C
  D
  E
  F
  G
  H
  I
  J
  K
  L
  M)
    )
  )
)
(assert
  (forall ( (A Int) (B Int) (C Int) (D Int) (E Int) (F Int) (G Int) (H Int) (I Int) (J Int) (K Int) (L Int) (M Int) ) 
    (=>
      (and
        (|<Main: void main(JayArray_java_lang_String)>_Block1_7|
  A
  B
  C
  D
  E
  F
  M
  G
  H
  I
  J
  K
  L)
        true
      )
      (|<Main: void main(JayArray_java_lang_String)>_Block1_8|
  A
  B
  C
  D
  E
  F
  G
  H
  I
  J
  K
  L)
    )
  )
)
(assert
  (forall ( (A Int) (B Int) (C Int) (D Int) (E Int) (F Int) (G Int) (H Int) (I Int) (J Int) (K Int) (L Int) (M Int) ) 
    (=>
      (and
        (|<Main: void main(JayArray_java_lang_String)>_Block1_7|
  A
  B
  C
  D
  E
  F
  G
  H
  I
  J
  K
  L
  M)
        (not (= G 0))
      )
      |Assert #0: Main.java, line 34|
    )
  )
)
(assert
  (forall ( (A Int) (B Int) (C Int) (D Int) (E Int) (F Int) (G Int) (H Int) (I Int) (J Int) (K Int) (L Int) ) 
    (=>
      (and
        (|<Main: void main(JayArray_java_lang_String)>_Block1_8|
  A
  B
  C
  D
  E
  F
  G
  H
  I
  J
  K
  L)
        (>= J 0)
      )
      (|<Main: void main(JayArray_java_lang_String)>_Block2| A B C D E F G H I J K L)
    )
  )
)
(assert
  (forall ( (A Int) (B Int) (C Int) (D Int) (E Int) (F Int) (G Int) (H Int) (I Int) (J Int) (K Int) (L Int) (M Int) (N Int) (O Int) (P Int) (Q Int) ) 
    (=>
      (and
        (|<Main: void main(JayArray_java_lang_String)>_Block2| A B C D E M N O P I Q L)
        (|<Main: int isEven(int)>_post| I L F G H J K)
        true
      )
      (|<Main: void main(JayArray_java_lang_String)>_Block2_1| A B C D E F G H I J K)
    )
  )
)
(assert
  (forall ( (A Int) (B Int) (C Int) (D Int) (E Int) (F Int) (G Int) (H Int) (I Int) (J Int) (K Int) (L Int) ) 
    (=>
      (and
        (|<Main: void main(JayArray_java_lang_String)>_Block2_1| A B C D E G H I J K L)
        (and (= F 1) (not (= G 0)))
      )
      (|<Main: void main(JayArray_java_lang_String)>_Block2_2|
  A
  B
  C
  D
  E
  F
  G
  H
  I
  J
  K
  L)
    )
  )
)
(assert
  (forall ( (A Int) (B Int) (C Int) (D Int) (E Int) (F Int) (G Int) (H Int) (I Int) (J Int) (K Int) (L Int) ) 
    (=>
      (and
        (|<Main: void main(JayArray_java_lang_String)>_Block2_1| A B C D E G H I J K L)
        (and (= F 0) (= G 0))
      )
      (|<Main: void main(JayArray_java_lang_String)>_Block2_2|
  A
  B
  C
  D
  E
  F
  G
  H
  I
  J
  K
  L)
    )
  )
)
(assert
  (forall ( (A Int) (B Int) (C Int) (D Int) (E Int) (F Int) (G Int) (H Int) (I Int) (J Int) (K Int) (L Int) ) 
    (=>
      (and
        (|<Main: void main(JayArray_java_lang_String)>_Block2_2|
  A
  B
  C
  D
  E
  L
  F
  G
  H
  I
  J
  K)
        true
      )
      (|<Main: void main(JayArray_java_lang_String)>_Block2_3| A B C D E F G H I J K)
    )
  )
)
(assert
  (forall ( (A Int) (B Int) (C Int) (D Int) (E Int) (F Int) (G Int) (H Int) (I Int) (J Int) (K Int) (L Int) ) 
    (=>
      (and
        (|<Main: void main(JayArray_java_lang_String)>_Block2_2|
  A
  B
  C
  D
  E
  F
  G
  H
  I
  J
  K
  L)
        (not (= F 0))
      )
      |Assert #1: Main.java, line 38|
    )
  )
)
(assert
  (forall ( (A Int) (B Int) (C Int) (D Int) (E Int) (F Int) (G Int) (H Int) (I Int) (J Int) (K Int) (L Int) (M Int) ) 
    (=>
      (and
        (|<Main: void main(JayArray_java_lang_String)>_Block2_3| A B C D E F G H L I K)
        (and (>= J (- 1))
     (<= J 1)
     (or (>= L 1) (not (>= J 1)))
     (or (<= L (- 1)) (not (<= J (- 1))))
     (= L (+ (* 2 M) J)))
      )
      (|<Main: void main(JayArray_java_lang_String)>_Block2_4| A B C D E F G H I J K)
    )
  )
)
(assert
  (forall ( (A Int) (B Int) (C Int) (D Int) (E Int) (F Int) (G Int) (H Int) (I Int) (J Int) (K Int) ) 
    (=>
      (and
        (|<Main: void main(JayArray_java_lang_String)>_Block2_4| A B C D E F G H I J K)
        (not (<= I (- 1)))
      )
      (|<Main: void main(JayArray_java_lang_String)>_Block5| A B C D E F G H I J K)
    )
  )
)
(assert
  (forall ( (A Int) (B Int) (C Int) (D Int) (E Int) (F Int) (G Int) (H Int) (I Int) (J Int) (K Int) ) 
    (=>
      (and
        (|<Main: void main(JayArray_java_lang_String)>_Block5| A B C D E F G H I J K)
        (not (= I J))
      )
      (|<Main: void main(JayArray_java_lang_String)>_Block6| A B C D E F G H I J K)
    )
  )
)
(assert
  (forall ( (A Int) (B Int) (C Int) (D Int) (E Int) (F Int) (G Int) (H Int) (I Int) (J Int) (K Int) ) 
    (=>
      (and
        (|<Main: void main(JayArray_java_lang_String)>_Block6| A B C D E F G H I J K)
        true
      )
      |Assert #2: Main.java, line 43|
    )
  )
)
(assert
  (forall ( (A Int) (B Int) (C Int) (D Int) (v_4 Int) ) 
    (=>
      (and
        (|<Main: void <clinit>()>_pre| A)
        (= v_4 A)
      )
      (|<Main: void <clinit>()>_Block1| A B C D v_4)
    )
  )
)
(assert
  (forall ( (A Int) (B Int) (C Int) (D Int) (v_4 Int) (v_5 Int) ) 
    (=>
      (and
        (|<Main: void <clinit>()>_Block1| A B C D v_4)
        (and (= v_4 A) (= v_5 A))
      )
      (|<Main: void <clinit>()>_Block1_1| A B C D v_5)
    )
  )
)
(assert
  (forall ( (A Int) (B Int) (C Int) (D Int) (E Int) (F Int) (G Int) (H Int) ) 
    (=>
      (and
        (|<Main: void <clinit>()>_Block1_1| A B C D H)
        (and (= G 0) (= F 0) (= E 0))
      )
      (|<Main: void <clinit>()>_Block1_2| A B C D E F G H)
    )
  )
)
(assert
  (forall ( (A Int) (B Int) (C Int) (D Int) (E Int) (F Int) (G Int) (H Int) ) 
    (=>
      (and
        (|<Main: void <clinit>()>_Block1_2| A F G H B C D E)
        true
      )
      (|<Main: void <clinit>()>_Block1_3| A B C D E)
    )
  )
)
(assert
  (forall ( (A Int) (B Int) (C Int) (D Int) (E Int) ) 
    (=>
      (and
        (|<Main: void <clinit>()>_Block1_3| A B C D E)
        true
      )
      (|<Main: void <clinit>()>_Block0| A B C D E)
    )
  )
)
(assert
  (forall ( (A Int) (B Int) (C Int) (D Int) (E Int) ) 
    (=>
      (and
        (|<Main: void <clinit>()>_Block0| A B C D E)
        true
      )
      (|<Main: void <clinit>()>_post| A B C D E)
    )
  )
)
(assert
  (forall ( (A Int) (v_1 Int) ) 
    (=>
      (and
        (|<JayHornAssertions: void <clinit>()>_pre| A)
        (= v_1 A)
      )
      (|<JayHornAssertions: void <clinit>()>_Block1| A v_1)
    )
  )
)
(assert
  (forall ( (A Int) (v_1 Int) (v_2 Int) ) 
    (=>
      (and
        (|<JayHornAssertions: void <clinit>()>_Block1| A v_1)
        (and (= v_1 A) (= v_2 A))
      )
      (|<JayHornAssertions: void <clinit>()>_Block1_1| A v_2)
    )
  )
)
(assert
  (forall ( (A Int) (B Int) (C Int) (D Int) (E Int) ) 
    (=>
      (and
        (|<JayHornAssertions: void <clinit>()>_Block1_1| A E)
        (and (= D 0) (= C 0) (= B 0))
      )
      (|<JayHornAssertions: void <clinit>()>_Block1_2| A B C D E)
    )
  )
)
(assert
  (forall ( (A Int) (B Int) (C Int) (D Int) (E Int) ) 
    (=>
      (and
        (|<JayHornAssertions: void <clinit>()>_Block1_2| A B C D E)
        true
      )
      (|<JayHornAssertions: void <clinit>()>_Block0| A B C D E)
    )
  )
)
(assert
  (forall ( (A Int) (B Int) (C Int) (D Int) (E Int) ) 
    (=>
      (and
        (|<JayHornAssertions: void <clinit>()>_Block0| A B C D E)
        true
      )
      (|<JayHornAssertions: void <clinit>()>_post| A B C D E)
    )
  )
)
(assert
  (forall ( (A Int) (B Int) (v_2 Int) ) 
    (=>
      (and
        (|<Havoc_Class: int havoc_int()>_pre| A)
        (= v_2 A)
      )
      (|<Havoc_Class: int havoc_int()>_Block0| A B v_2)
    )
  )
)
(assert
  (forall ( (A Int) (B Int) (v_2 Int) (v_3 Int) ) 
    (=>
      (and
        (|<Havoc_Class: int havoc_int()>_Block0| A B v_2)
        (and (= v_2 A) (= v_3 A))
      )
      (|<Havoc_Class: int havoc_int()>_Block0_1| A B v_3)
    )
  )
)
(assert
  (forall ( (A Int) (B Int) (C Int) (D Int) (E Int) (F Int) ) 
    (=>
      (and
        (|<Havoc_Class: int havoc_int()>_Block0_1| A B F)
        (and (= E 0) (= D 0) (= C 0))
      )
      (|<Havoc_Class: int havoc_int()>_Block0_2| A B C D E F)
    )
  )
)
(assert
  (forall ( (A Int) (B Int) (C Int) (D Int) (E Int) (F Int) ) 
    (=>
      (and
        (|<Havoc_Class: int havoc_int()>_Block0_2| A E B C D F)
        true
      )
      (|<Havoc_Class: int havoc_int()>_post| A B C D E F)
    )
  )
)
(assert
  (forall ( (A Int) (B Int) (C Int) (D Int) (E Int) ) 
    (=>
      (and
        true
      )
      (|<Main: void main(JayArray_java_lang_String)>_pre| A B C D E)
    )
  )
)
(assert
  (forall ( (CHC_COMP_UNUSED Bool) ) 
    (=>
      (and
        |Assert #0: Main.java, line 34|
        true
      )
      CHC_COMP_FALSE
    )
  )
)
(assert
  (forall ( (CHC_COMP_UNUSED Bool) ) 
    (=>
      (and
        |Assert #1: Main.java, line 38|
        true
      )
      CHC_COMP_FALSE
    )
  )
)
(assert
  (forall ( (CHC_COMP_UNUSED Bool) ) 
    (=>
      (and
        |Assert #2: Main.java, line 43|
        true
      )
      CHC_COMP_FALSE
    )
  )
)
(assert
  (forall ( (CHC_COMP_UNUSED Bool) ) 
    (=>
      (and
        CHC_COMP_FALSE
      )
      false
    )
  )
)

(check-sat)
(exit)
